Version identifier: 22.1.1.0 | 2022-11-28 | 9160aff4d
CPXPARAM_ClockType                               1
CPXPARAM_Read_DataCheck                          1
CPXPARAM_Threads                                 1
CPXPARAM_TimeLimit                               7200
CPXPARAM_MIP_Tolerances_AbsMIPGap                0
CPXPARAM_MIP_Tolerances_MIPGap                   0
CPXPARAM_MIP_Tolerances_Integrality              0
Tried aggregator 1 time.
MIP Presolve eliminated 27 rows and 9 columns.
MIP Presolve modified 18 coefficients.
Reduced MIP has 230595 rows, 22761 columns, and 1247556 nonzeros.
Reduced MIP has 22761 binaries, 0 generals, 0 SOSs, and 0 indicators.
Presolve time = 3.38 sec. (1913.31 ticks)
Probing time = 0.05 sec. (17.24 ticks)
Tried aggregator 1 time.
Detecting symmetries...
Reduced MIP has 230595 rows, 22761 columns, and 1247556 nonzeros.
Reduced MIP has 22761 binaries, 0 generals, 0 SOSs, and 0 indicators.
Presolve time = 3.60 sec. (1919.33 ticks)
Probing time = 0.05 sec. (17.22 ticks)
Clique table members: 205061.
MIP emphasis: balance optimality and feasibility.
MIP search method: dynamic search.
Parallel mode: none, using 1 thread.
Root relaxation solution time = 205.85 sec. (37347.03 ticks)

        Nodes                                         Cuts/
   Node  Left     Objective  IInf  Best Integer    Best Bound    ItCnt     Gap

      0     0    18975.0000  7591                  18975.0000    39571         

Zero-half cuts applied:  2472
Gomory fractional cuts applied:  4

Root node processing (before b&c):
  Real time             = 7200.39 sec. (1137774.69 ticks)
Sequential b&c:
  Real time             =    0.00 sec. (0.00 ticks)
                          ------------
Total (root+branch&cut) = 7200.39 sec. (1137774.69 ticks)
Solution is infeasible.

---------------------
@@@ MIP_time_limit_infeasible
Traceback (most recent call last):
  File "/scratch/scherif/DiverseSAT-journal_sup/DiverseSAT_Supplementary_Experiments/experiment-1/cplex/jobs/../solvers/CPLEX-DW-SE.py", line 104, in <module>
    print(f">>> Benchmark {os.path.basename(cnf_file)} k {k} OPT {int(prob.solution.get_objective_value())}"
  File "/users/scherif/.local/lib/python3.9/site-packages/cplex/_internal/_subinterfaces.py", line 7211, in get_objective_value
    return CPX_PROC.getobjval(self._env._e, self._cplex._lp)
  File "/users/scherif/.local/lib/python3.9/site-packages/cplex/_internal/_procedural.py", line 2055, in getobjval
    check_status(env, status)
  File "/users/scherif/.local/lib/python3.9/site-packages/cplex/_internal/_procedural.py", line 249, in __call__
    raise CplexSolverError(error_string, env, status)
cplex.exceptions.errors.CplexSolverError: CPLEX Error  1217: No solution exists.
